0 4 1
0 5 1
0 6 1
0 7 1
0 24 1
1 4 1
1 5 1
1 6 1
1 7 1
1 25 1
2 4 1
2 5 1
2 6 1
2 7 1
2 26 1
3 4 1
3 5 1
3 6 1
3 7 1
3 27 1
4 12 1
5 13 1
6 14 1
7 15 1
8 12 1
8 13 1
8 14 1
8 15 1
8 32 1
9 12 1
9 13 1
9 14 1
9 15 1
9 33 1
10 12 1
10 13 1
10 14 1
10 15 1
10 34 1
11 12 1
11 13 1
11 14 1
11 15 1
11 35 1
12 20 1
13 21 1
14 22 1
15 23 1
16 20 1
16 21 1
16 22 1
16 23 1
16 40 1
17 20 1
17 21 1
17 22 1
17 23 1
17 41 1
18 20 1
18 21 1
18 22 1
18 23 1
18 42 1
19 20 1
19 21 1
19 22 1
19 23 1
19 43 1
24 28 1
24 29 1
24 30 1
24 31 1
24 48 1
25 28 1
25 29 1
25 30 1
25 31 1
25 49 1
26 28 1
26 29 1
26 30 1
26 31 1
26 50 1
27 28 1
27 29 1
27 30 1
27 31 1
27 51 1
28 36 1
29 37 1
30 38 1
31 39 1
32 36 1
32 37 1
32 38 1
32 39 1
32 56 1
33 36 1
33 37 1
33 38 1
33 39 1
33 57 1
34 36 1
34 37 1
34 38 1
34 39 1
34 58 1
35 36 1
35 37 1
35 38 1
35 39 1
35 59 1
36 44 1
37 45 1
38 46 1
39 47 1
40 44 1
40 45 1
40 46 1
40 47 1
40 64 1
41 44 1
41 45 1
41 46 1
41 47 1
41 65 1
42 44 1
42 45 1
42 46 1
42 47 1
42 66 1
43 44 1
43 45 1
43 46 1
43 47 1
43 67 1
48 52 1
48 53 1
48 54 1
48 55 1
49 52 1
49 53 1
49 54 1
49 55 1
50 52 1
50 53 1
50 54 1
50 55 1
51 52 1
51 53 1
51 54 1
51 55 1
52 60 1
53 61 1
54 62 1
55 63 1
56 60 1
56 61 1
56 62 1
56 63 1
57 60 1
57 61 1
57 62 1
57 63 1
58 60 1
58 61 1
58 62 1
58 63 1
59 60 1
59 61 1
59 62 1
59 63 1
60 68 1
61 69 1
62 70 1
63 71 1
64 68 1
64 69 1
64 70 1
64 71 1
65 68 1
65 69 1
65 70 1
65 71 1
66 68 1
66 69 1
66 70 1
66 71 1
67 68 1
67 69 1
67 70 1
67 71 1
